p cnf 16 27
1 5 9 13 0
2 6 10 14 0
3 7 11 15 0
-1 -2 0
-1 -3 0
-2 -3 0
-5 -6 0
-5 -7 0
-6 -7 0
-9 -10 0
-9 -11 0
-10 -11 0
-13 -14 0
-13 -15 0
-14 -15 0
-1 -14 0
-1 -15 0
-2 -13 0
-2 -15 0
-3 -13 0
-3 -14 0
-5 -10 0
-5 -11 0
-6 -9 0
-6 -11 0
-7 -9 0
-7 -10 0